
List of user-set options:

                                    Name   Value                used
                           compl_inf_tol = 1                     yes
                         constr_viol_tol = 1                     yes
                            dual_inf_tol = 1000                  yes
                           linear_solver = ma97                  yes
                              ma86_small = 1e-30                  no
                                  ma86_u = 0.0001                 no
                              ma97_order = best                  yes
                              ma97_small = 1e-30                 yes
                            ma97_switch1 = at_start              yes
                            ma97_switch2 = od_hd_reuse           yes
                                  ma97_u = 1e-06                 yes
                               ma97_umax = 0.5                   yes
                                max_iter = 1000                  yes
                    max_refinement_steps = 20                    yes
                    min_refinement_steps = 5                     yes
                                 mu_init = 1e-06                 yes
           mu_superlinear_decrease_power = 1.25                  yes
                   nlp_scaling_min_value = 1e-08                 yes
                        option_file_name = Preset_Case_371_pf.opt  yes
                             output_file = ./tmp/Preset_Case_371_pf.output  yes
                      print_user_options = yes                   yes
                                     tol = 0.0001                yes
                   warm_start_bound_frac = 1e-20                 yes
                   warm_start_bound_push = 1e-20                 yes
                   warm_start_init_point = yes                   yes
              warm_start_mult_bound_push = 1e-20                 yes
                warm_start_mult_init_max = 1e+40                 yes
             warm_start_slack_bound_frac = 1e-20                 yes
             warm_start_slack_bound_push = 1e-20                 yes

******************************************************************************
This program contains Ipopt, a library for large-scale nonlinear optimization.
 Ipopt is released as open source code under the Eclipse Public License (EPL).
         For more information visit http://projects.coin-or.org/Ipopt
******************************************************************************

This is Ipopt version 3.12.10, running with linear solver ma97.

Number of nonzeros in equality constraint Jacobian...:   103066
Number of nonzeros in inequality constraint Jacobian.:      145
Number of nonzeros in Lagrangian Hessian.............:    39976

Total number of variables............................:    29160
                     variables with only lower bounds:    11314
                variables with lower and upper bounds:    14309
                     variables with only upper bounds:        0
Total number of equality constraints.................:    29077
Total number of inequality constraints...............:       21
        inequality constraints with only lower bounds:        0
   inequality constraints with lower and upper bounds:        0
        inequality constraints with only upper bounds:       21

iter    objective    inf_pr   inf_du lg(mu)  ||d||  lg(rg) alpha_du alpha_pr  ls
   0 -9.8445478e+03 1.23e+00 1.53e+04  -6.0 0.00e+00    -  0.00e+00 0.00e+00   0
   1 -9.8440277e+03 1.18e+00 1.46e+04  -6.0 8.37e+02    -  5.29e-01 4.22e-02h  5
   2 -9.8435405e+03 1.13e+00 1.40e+04  -6.0 8.07e+02    -  1.00e+00 4.10e-02h  5
   3 -9.8430842e+03 1.09e+00 1.35e+04  -6.0 7.79e+02    -  6.29e-01 3.97e-02h  5
   4 -9.8426567e+03 1.05e+00 1.30e+04  -6.0 7.53e+02    -  1.00e+00 3.85e-02h  5
   5 -9.8418557e+03 9.68e-01 1.20e+04  -6.0 7.28e+02    -  7.54e-01 7.45e-02h  4
   6 -9.8411558e+03 9.01e-01 1.12e+04  -6.0 6.82e+02    -  1.00e+00 6.94e-02h  4
   7 -9.8405442e+03 8.43e-01 1.05e+04  -6.0 6.41e+02    -  9.79e-01 6.45e-02h  4
   8 -9.8400097e+03 7.92e-01 9.84e+03  -6.0 6.05e+02    -  1.00e+00 5.97e-02h  4
   9 -9.8390752e+03 7.05e-01 8.77e+03  -6.0 5.73e+02    -  1.00e+00 1.10e-01h  3
iter    objective    inf_pr   inf_du lg(mu)  ||d||  lg(rg) alpha_du alpha_pr  ls
  10 -9.8383755e+03 6.41e-01 7.98e+03  -6.0 5.17e+02    -  1.00e+00 9.11e-02h  3
  11 -9.8362796e+03 7.08e-01 5.65e+03  -6.0 4.75e+02    -  1.00e+00 2.97e-01w  1
  12 -9.8362796e+03 7.08e-01 5.85e+06  -6.0 3.41e+02    -  4.53e-01 4.10e-07w  1
  13 -9.8336400e+03 2.56e+00 1.69e+06  -6.0 2.69e+05    -  1.23e-09 1.31e-03w  1
  14 -9.8373275e+03 5.46e-01 6.80e+03  -6.0 2.03e+05    -  1.00e+00 1.48e-01h  1
  15 -9.8362818e+03 4.53e-01 5.65e+03  -6.0 4.11e+02    -  1.00e+00 1.71e-01h  1
  16r-9.8362818e+03 4.53e-01 1.00e+03  -0.4 0.00e+00    -  0.00e+00 1.17e-07R  2
  17r-9.8362825e+03 4.52e-01 1.00e+03  -0.4 1.22e+04    -  2.36e-05 8.12e-06f  1
  18r-9.8362860e+03 4.40e-01 1.00e+03  -0.4 7.50e+03    -  2.22e-05 7.66e-05f  1
  19r-9.8362881e+03 4.26e-01 1.85e+03  -0.4 4.50e+03    -  2.71e-04 9.68e-05f  1
iter    objective    inf_pr   inf_du lg(mu)  ||d||  lg(rg) alpha_du alpha_pr  ls
  20 -9.8362881e+03 4.26e-01 9.44e+06  -6.0 5.01e+01    -  3.96e-01 7.92e-05h  1
  21 -9.8362727e+03 4.25e-01 3.48e+08  -6.0 3.47e+02    -  8.07e-05 2.97e-03h  1
  22 -9.8362728e+03 4.25e-01 3.48e+08  -6.0 1.15e+03    -  4.30e-05 5.51e-07h  2
  23 -9.8362728e+03 4.25e-01 3.48e+08  -6.0 1.15e+03    -  4.77e-06 1.10e-06h  2
  24r-9.8362728e+03 4.25e-01 1.00e+03  -0.5 0.00e+00    -  0.00e+00 4.26e-07R  3
  25r-9.8362727e+03 4.25e-01 1.43e+03  -0.5 2.47e+03    -  1.06e-04 1.35e-06f  1
  26r-9.8362712e+03 4.18e-01 1.00e+03  -0.5 2.07e+03    -  7.78e-06 1.33e-04f  1
  27 -9.8362712e+03 4.18e-01 7.42e+04  -6.0 5.59e+01    -  4.20e-01 4.12e-05h  1
  28 -9.8362712e+03 4.18e-01 1.26e+05  -6.0 1.06e+03    -  1.26e-05 5.27e-07h  2
  29 -9.8362712e+03 4.18e-01 3.74e+05  -6.0 1.10e+03    -  2.82e-06 1.25e-07h  4
iter    objective    inf_pr   inf_du lg(mu)  ||d||  lg(rg) alpha_du alpha_pr  ls
  30r-9.8362712e+03 4.18e-01 1.00e+03  -0.6 0.00e+00    -  0.00e+00 3.13e-07R  3
  31r-9.8362711e+03 4.18e-01 4.13e+03  -0.6 2.05e+03    -  4.36e-04 9.21e-06f  1
  32r-9.8362642e+03 4.17e-01 3.06e+03  -0.6 1.04e+03    -  5.14e-04 6.87e-04f  1
  33 -9.8362642e+03 4.17e-01 2.08e+06  -6.0 9.40e+00    -  4.40e-01 1.56e-04h  1
  34r-9.8362642e+03 4.17e-01 1.00e+03  -0.9 0.00e+00    -  0.00e+00 2.50e-07R  3
  35r-9.8362641e+03 4.17e-01 3.02e+03  -0.9 7.09e+02    -  9.63e-04 1.70e-05f  1
  36r-9.8362568e+03 4.16e-01 1.18e+04  -0.9 5.21e+02    -  4.72e-03 1.42e-03f  1
  37 -9.8362568e+03 4.16e-01 2.35e+06  -6.0 3.09e+00    -  4.13e-01 1.55e-04h  1
  38 -9.8362566e+03 4.16e-01 9.51e+05  -6.0 3.20e+02    -  1.57e-04 6.35e-05h  1
In iteration 38, 1 Slack too small, adjusting variable bound
  39 -9.8362566e+03 4.16e-01 9.51e+05  -6.0 1.16e+03    -  6.04e-05 7.18e-06h  1
iter    objective    inf_pr   inf_du lg(mu)  ||d||  lg(rg) alpha_du alpha_pr  ls
  40r-9.8362566e+03 4.16e-01 1.00e+03  -1.4 0.00e+00    -  0.00e+00 4.04e-07R  4
  41r-9.8362566e+03 4.16e-01 5.29e+03  -1.4 1.77e+02    -  7.33e-03 1.74e-05f  1
  42r-9.8362439e+03 4.07e-01 1.07e+04  -1.4 1.25e+02    -  2.03e-02 8.33e-03f  1
  43 -9.8362435e+03 4.06e-01 4.02e+03  -6.0 2.12e+02    -  4.42e-01 2.40e-04h  1
  44r-9.8362435e+03 4.06e-01 1.00e+03  -2.5 0.00e+00    -  0.00e+00 1.46e-08R  2
  45r-9.8362427e+03 3.91e-01 9.98e+02  -2.5 2.01e+02    -  5.96e-03 1.24e-03f  1
  46 -9.8362427e+03 3.91e-01 2.10e+04  -6.0 1.19e+01    -  3.58e-01 1.70e-05h  1
  47 -9.8362427e+03 3.91e-01 6.70e+04  -6.0 8.53e+02    -  2.07e-05 3.91e-06h  2
  48r-9.8362427e+03 3.91e-01 1.00e+03  -3.0 0.00e+00    -  0.00e+00 3.97e-07R  4
  49r-9.8362425e+03 3.63e-01 9.98e+02  -3.0 3.04e+02    -  2.78e-03 1.15e-03f  1
iter    objective    inf_pr   inf_du lg(mu)  ||d||  lg(rg) alpha_du alpha_pr  ls
  50r-9.8362425e+03 3.63e-01 9.99e+02  -3.1 0.00e+00    -  0.00e+00 4.55e-07R  2
  51r-9.8362423e+03 3.10e-01 9.96e+02  -3.1 2.90e+02    -  5.01e-03 2.25e-03f  1
  52 -9.8362158e+03 3.05e-01 4.02e+03  -6.0 2.12e+02    -  4.55e-01 1.67e-02h  1
  53r-9.8362158e+03 3.05e-01 1.00e+03  -3.3 0.00e+00    -  0.00e+00 8.64e-09R  2
  54r-9.8362158e+03 2.57e-01 9.95e+02  -3.3 2.21e+02    -  9.73e-03 2.39e-03f  1
  55 -9.8362158e+03 2.57e-01 7.59e+02  -6.0 4.21e+00    -  3.94e-01 5.20e-04h  1
  56 -9.8361417e+03 2.45e-01 9.17e+02  -6.0 2.12e+02    -  7.23e-02 4.68e-02h  1
  57r-9.8361417e+03 2.45e-01 1.00e+03  -2.8 0.00e+00    -  0.00e+00 3.09e-07R  4
  58r-9.8362851e+03 2.37e-01 9.86e+02  -2.8 1.75e+04    -  1.74e-02 1.00e-03f  1
  59r-9.8362839e+03 1.39e-01 1.24e+04  -2.8 2.50e+01    -  2.29e-01 1.90e-02f  1
iter    objective    inf_pr   inf_du lg(mu)  ||d||  lg(rg) alpha_du alpha_pr  ls
  60r-9.8362630e+03 2.95e-02 1.12e+04  -2.8 2.33e+01    -  2.78e-01 2.36e-01f  1
  61r-9.8361764e+03 1.50e-02 1.11e+04  -2.8 1.77e+01    -  2.87e-01 5.80e-01f  1
  62r-9.8359598e+03 1.44e-02 1.96e+04  -2.8 8.04e+00    -  4.51e-01 8.57e-01f  1
  63r-9.8355402e+03 1.13e-02 9.84e+03  -2.8 3.58e+00    -  4.46e-01 6.26e-01f  1
  64r-9.8345898e+03 1.64e-02 4.59e+03  -2.8 5.40e+00    -  5.39e-01 6.00e-01f  1
  65r-9.8321994e+03 3.56e-02 1.78e+04  -2.8 8.12e+00    -  5.86e-01 1.00e+00f  1
  66r-9.8286915e+03 6.06e-03 1.58e+03  -2.8 7.76e+00    -  8.11e-01 1.00e+00h  1
  67 -9.8299815e+03 1.36e-02 7.11e+03  -6.0 9.65e+01    -  5.55e-01 1.55e-01f  1
  68 -9.8304637e+03 1.39e-02 6.60e+03  -6.0 2.51e+02    -  1.67e-01 7.24e-02f  1
  69 -9.8304637e+03 1.39e-02 8.43e+03  -6.0 3.74e+02    -  6.10e-01 1.08e-06h  2
iter    objective    inf_pr   inf_du lg(mu)  ||d||  lg(rg) alpha_du alpha_pr  ls
  70 -9.8304933e+03 2.90e-02 7.99e+03  -6.0 3.99e+02    -  6.42e-01 6.82e-02h  2
  71 -9.8305078e+03 3.24e-02 6.46e+03  -6.0 3.74e+02    -  7.10e-01 3.63e-02h  2
  72 -9.8305221e+03 3.56e-02 5.72e+03  -6.0 3.62e+02    -  7.64e-01 3.76e-02h  1
  73 -9.8305221e+03 3.56e-02 2.54e+05  -6.0 1.39e+03    -  1.68e-02 2.96e-07h  2
  74 -9.8305405e+03 3.56e-02 5.75e+05  -6.0 1.47e+03    -  3.82e-03 1.67e-03f  1
  75r-9.8305405e+03 3.56e-02 1.00e+03  -1.5 0.00e+00    -  0.00e+00 3.65e-07R 11
  76r-9.8305401e+03 2.42e-02 2.35e+04  -1.5 2.87e+02    -  1.84e-02 3.20e-04f  1
  77 -9.8305401e+03 2.42e-02 1.37e+06  -6.0 1.28e+02    -  6.29e-01 1.51e-05h  1
  78 -9.8305399e+03 2.42e-02 9.61e+06  -6.0 2.69e+03    -  1.59e-05 1.12e-04h  1
  79 -9.8305385e+03 2.42e-02 9.61e+06  -6.0 6.61e+03    -  5.00e-04 4.65e-05h  2
iter    objective    inf_pr   inf_du lg(mu)  ||d||  lg(rg) alpha_du alpha_pr  ls
  80r-9.8305385e+03 2.42e-02 1.00e+03  -1.7 0.00e+00    -  0.00e+00 4.02e-07R  9
  81r-9.8305382e+03 2.04e-02 1.10e+04  -1.7 8.97e+01    -  1.27e-02 1.59e-04f  1
  82 -9.8305383e+03 2.04e-02 3.08e+07  -6.0 1.25e+02    -  6.28e-01 5.08e-06h  1
  83r-9.8305383e+03 2.04e-02 1.00e+03  -1.8 0.00e+00    -  0.00e+00 3.64e-07R  8
  84r-9.8305381e+03 1.85e-02 1.29e+04  -1.8 8.29e+01    -  1.97e-02 8.85e-05f  1
  85r-9.8305081e+03 1.30e-02 1.30e+04  -1.8 5.35e+01    -  2.31e-02 2.07e-02f  1
  86 -9.8305106e+03 1.30e-02 1.22e+03  -6.0 3.03e+01    -  5.64e-01 4.64e-04h  1
  87r-9.8305106e+03 1.30e-02 1.00e+03  -2.9 0.00e+00    -  0.00e+00 4.12e-07R  5
  88r-9.8305105e+03 1.29e-02 1.40e+04  -2.9 1.38e+01    -  4.84e-01 1.00e-03f  1
  89 -9.8305105e+03 1.29e-02 2.35e+03  -6.0 2.18e+02    -  1.33e-01 7.83e-07h  2
iter    objective    inf_pr   inf_du lg(mu)  ||d||  lg(rg) alpha_du alpha_pr  ls
  90 -9.8305105e+03 1.29e-02 1.00e+04  -6.0 3.46e+02    -  5.71e-01 3.65e-06h  2
  91r-9.8305105e+03 1.29e-02 1.00e+03  -3.5 0.00e+00    -  0.00e+00 4.88e-07R  4
  92r-9.8305105e+03 1.29e-02 3.11e+03  -3.5 2.01e+01    -  2.13e-01 1.00e-03f  1
  93 -9.8305105e+03 1.29e-02 8.35e+04  -6.0 1.75e+01    -  9.86e-02 5.91e-07h  2
  94r-9.8305105e+03 1.29e-02 1.00e+03  -4.1 0.00e+00    -  0.00e+00 2.83e-07R  6
  95r-9.8305105e+03 1.26e-02 9.96e+02  -4.1 2.96e+01    -  4.38e-02 1.09e-03f  1
  96 -9.8305105e+03 1.26e-02 2.54e+06  -6.0 2.13e+02    -  5.59e-01 7.18e-07h  1
  97r-9.8305105e+03 1.26e-02 1.00e+03  -4.5 0.00e+00    -  0.00e+00 4.73e-07R  8
  98r-9.8305106e+03 1.16e-02 9.98e+02  -4.5 9.13e+01    -  6.50e-02 1.62e-03f  1
  99r-9.8305106e+03 1.16e-02 9.99e+02  -4.5 0.00e+00    -  0.00e+00 3.71e-08R  2
iter    objective    inf_pr   inf_du lg(mu)  ||d||  lg(rg) alpha_du alpha_pr  ls
 100r-9.8305106e+03 1.05e-02 9.97e+02  -4.5 3.73e+01    -  9.10e-04 2.09e-03f  1
 101 -9.8305111e+03 1.05e-02 1.05e+08  -6.0 2.08e+01    -  5.66e-01 9.36e-05f  1
 102 -9.8305109e+03 1.05e-02 1.49e+07  -6.0 2.06e+03    -  1.19e-04 1.69e-05h  1
 103r-9.8305109e+03 1.05e-02 1.00e+03  -4.5 0.00e+00    -  0.00e+00 4.97e-07R  7
 104r-9.8305109e+03 7.74e-03 1.18e+03  -4.5 4.96e+01    -  5.69e-02 6.37e-03f  1
 105 -9.8305109e+03 7.74e-03 1.26e+05  -6.0 1.78e+01    -  4.29e-02 1.70e-07h  2
 106r-9.8305109e+03 7.74e-03 1.00e+03  -4.6 0.00e+00    -  0.00e+00 4.42e-07R  5
 107r-9.8305109e+03 7.50e-03 9.99e+02  -4.6 2.74e+01    -  6.26e-02 1.00e-03f  1
 108 -9.8305109e+03 7.50e-03 1.29e+05  -6.0 1.78e+01    -  2.91e-02 5.65e-08h  3
 109r-9.8305109e+03 7.50e-03 1.00e+03  -4.6 0.00e+00    -  0.00e+00 4.38e-07R  5
iter    objective    inf_pr   inf_du lg(mu)  ||d||  lg(rg) alpha_du alpha_pr  ls
 110r-9.8305109e+03 6.61e-03 9.96e+02  -4.6 2.69e+01    -  6.34e-02 3.86e-03f  1
 111 -9.8305109e+03 6.61e-03 1.33e+05  -6.0 1.78e+01    -  5.11e-02 1.92e-07h  2
 112r-9.8305109e+03 6.61e-03 1.00e+03  -4.6 0.00e+00    -  0.00e+00 4.69e-07R  5
 113r-9.8305110e+03 4.44e-03 9.88e+02  -4.6 2.52e+01    -  8.08e-02 1.21e-02f  1
 114 -9.8305110e+03 4.44e-03 4.78e+07  -6.0 2.18e+02    -  5.54e-01 4.59e-07h  2
 115r-9.8305110e+03 4.44e-03 1.00e+03  -4.5 0.00e+00    -  0.00e+00 4.26e-07R  7
 116r-9.8305110e+03 4.29e-03 1.27e+03  -4.5 2.67e+01    -  7.39e-02 2.00e-03f  1
 117 -9.8305110e+03 4.29e-03 1.47e+05  -6.0 1.79e+01    -  8.67e-02 2.95e-07h  2
 118r-9.8305110e+03 4.29e-03 1.00e+03  -4.5 0.00e+00    -  0.00e+00 2.70e-07R  6
 119r-9.8305110e+03 3.79e-03 1.20e+03  -4.5 1.85e+01    -  7.10e-02 7.08e-03f  1
iter    objective    inf_pr   inf_du lg(mu)  ||d||  lg(rg) alpha_du alpha_pr  ls
 120 -9.8305110e+03 3.79e-03 1.49e+05  -6.0 1.81e+01    -  1.13e-01 3.81e-07h  2
 121r-9.8305110e+03 3.79e-03 1.00e+03  -4.5 0.00e+00    -  0.00e+00 2.87e-07R  6
 122r-9.8305111e+03 3.55e-03 9.95e+02  -4.5 1.65e+01    -  6.85e-02 4.54e-03f  1
 123 -9.8305111e+03 3.55e-03 1.51e+05  -6.0 1.81e+01    -  1.05e-01 3.46e-07h  2
 124r-9.8305111e+03 3.55e-03 1.00e+03  -4.5 0.00e+00    -  0.00e+00 2.87e-07R  6
 125r-9.8305111e+03 3.00e-03 9.87e+02  -4.5 1.53e+01    -  6.87e-02 1.22e-02f  1
 126 -9.8305111e+03 3.00e-03 4.11e+04  -6.0 2.29e+02    -  3.25e-01 6.07e-07h  2
 127r-9.8305111e+03 3.00e-03 1.00e+03  -4.5 0.00e+00    -  0.00e+00 4.65e-07R  6
 128r-9.8305111e+03 2.94e-03 1.36e+03  -4.5 1.73e+01    -  1.07e-01 1.93e-03f  1
 129 -9.8305111e+03 2.94e-03 2.60e+04  -6.0 2.47e+02    -  4.51e-01 7.52e-07f  1
iter    objective    inf_pr   inf_du lg(mu)  ||d||  lg(rg) alpha_du alpha_pr  ls
 130r-9.8305111e+03 2.94e-03 1.00e+03  -4.5 0.00e+00    -  0.00e+00 3.45e-07R  8
 131r-9.8305111e+03 2.91e-03 9.91e+02  -4.5 5.15e+01    -  5.24e-02 7.53e-03f  1
 132r-9.8305105e+03 3.83e-03 9.70e+02  -4.5 4.14e+01    -  1.06e-01 2.07e-02f  1
 133r-9.8305095e+03 5.00e-03 2.31e+03  -4.5 2.03e+01    -  2.82e-01 2.23e-02f  1
 134r-9.8305050e+03 2.69e-02 2.92e+03  -4.5 1.86e+01    -  3.10e-01 9.15e-02f  1
 135r-9.8305028e+03 3.44e-02 4.45e+03  -4.5 1.75e+01    -  7.65e-01 8.49e-02f  1
 136r-9.8304832e+03 4.82e-02 3.77e+03  -4.5 1.43e+01    -  1.90e-01 1.57e-01f  1
 137r-9.8304139e+03 2.54e-01 2.27e+03  -4.5 1.16e+01    -  6.14e-01 4.23e-01f  1
 138r-9.8303546e+03 2.20e-01 1.99e+03  -4.5 1.02e+01    -  4.39e-01 1.53e-01f  1
 139r-9.8298416e+03 1.41e-01 1.23e+03  -4.5 8.32e+01    -  1.31e-01 3.65e-01f  1
iter    objective    inf_pr   inf_du lg(mu)  ||d||  lg(rg) alpha_du alpha_pr  ls
 140r-9.8293297e+03 8.22e-02 7.33e+02  -4.5 6.20e+01    -  5.06e-01 4.15e-01f  1
 141r-9.8282927e+03 2.16e-02 1.63e+02  -4.5 4.25e+01    -  5.70e-01 7.60e-01f  1
 142r-9.8272188e+03 8.16e-03 2.84e+01  -4.5 1.99e+01    -  9.22e-01 1.00e+00f  1
 143r-9.8266163e+03 5.36e-04 3.42e-02  -4.5 5.10e+00    -  1.00e+00 1.00e+00h  1
 144r-9.8266432e+03 6.11e-05 1.94e-03  -4.5 1.59e+00    -  1.00e+00 1.00e+00h  1
 145 -9.8266875e+03 6.08e-05 9.99e+01  -6.0 4.35e+01    -  5.15e-01 5.39e-03f  1
 146 -9.8267155e+03 2.31e-04 3.89e+04  -6.0 4.50e+02    -  6.60e-01 5.91e-03f  1
 147r-9.8267155e+03 2.31e-04 1.00e+03  -3.7 0.00e+00    -  0.00e+00 3.06e-09R  2
 148r-9.8267168e+03 2.62e-05 5.31e+03  -3.7 1.58e+02    -  1.46e-01 1.00e-03f  1
 149 -9.8267168e+03 2.62e-05 2.33e+05  -6.0 3.56e+01    -  1.58e-01 3.41e-07h  2
iter    objective    inf_pr   inf_du lg(mu)  ||d||  lg(rg) alpha_du alpha_pr  ls
 150r-9.8267168e+03 2.62e-05 1.00e+03  -4.9 0.00e+00    -  0.00e+00 3.34e-07R  9
 151r-9.8267168e+03 2.62e-05 2.61e+03  -4.9 1.69e+00    -  9.89e-01 1.00e-03f  1
 152 -9.8267169e+03 2.62e-05 2.08e+05  -6.0 4.63e+02    -  3.20e-01 3.64e-07f  1
 153r-9.8267169e+03 2.62e-05 1.00e+03  -5.5 0.00e+00    -  0.00e+00 4.15e-07R 11
 154r-9.8267168e+03 2.61e-05 9.98e+02  -5.5 2.00e+01    -  8.95e-01 1.00e-03f  1
 155r-9.8267168e+03 2.61e-05 9.99e+02  -5.6 0.00e+00    -  0.00e+00 2.27e-08R  2
 156r-9.8267168e+03 2.60e-05 9.97e+02  -5.6 3.21e+00    -  4.64e-01 2.95e-03f  1
 157 -9.8267169e+03 2.60e-05 4.38e+04  -6.0 3.67e+01    -  8.54e-01 1.96e-05f  1
 158r-9.8267169e+03 2.60e-05 1.00e+03  -5.6 0.00e+00    -  0.00e+00 3.49e-07R 11
 159r-9.8267167e+03 2.55e-05 9.88e+02  -5.6 5.88e+00    -  5.85e-01 1.19e-02f  1
iter    objective    inf_pr   inf_du lg(mu)  ||d||  lg(rg) alpha_du alpha_pr  ls
 160r-9.8267167e+03 2.55e-05 9.99e+02  -5.6 0.00e+00    -  0.00e+00 3.95e-08R  2
 161r-9.8267164e+03 2.65e-05 9.80e+02  -5.6 5.34e+00    -  6.12e-01 1.94e-02f  1
 162 -9.8267252e+03 2.68e-05 4.61e+02  -6.0 3.66e+01    -  5.03e-01 1.09e-03f  1
 163 -9.8267279e+03 2.69e-05 3.16e+04  -6.0 2.70e+02    -  7.74e-01 6.22e-04f  1
In iteration 163, 1 Slack too small, adjusting variable bound
 164 -9.8267279e+03 2.69e-05 2.36e+05  -6.0 2.58e+02    -  1.01e-02 1.44e-06f  1
 165r-9.8267279e+03 2.69e-05 1.00e+03  -5.6 0.00e+00    -  0.00e+00 3.45e-07R 13
 166r-9.8267278e+03 2.66e-05 9.95e+02  -5.6 4.98e+00    -  7.52e-01 4.80e-03f  1
 167 -9.8267370e+03 2.72e-05 1.48e+04  -6.0 2.52e+02    -  4.15e-01 1.56e-03f  1
 168r-9.8267370e+03 2.72e-05 1.00e+03  -5.6 0.00e+00    -  0.00e+00 4.09e-10R  2
 169r-9.8267395e+03 2.72e-05 9.98e+02  -5.6 3.04e+02    -  1.13e-02 1.00e-03f  1
iter    objective    inf_pr   inf_du lg(mu)  ||d||  lg(rg) alpha_du alpha_pr  ls
 170r-9.8267395e+03 2.72e-05 9.99e+02  -5.6 0.00e+00    -  0.00e+00 4.81e-08R  2
 171r-9.8267395e+03 2.71e-05 9.99e+02  -5.6 2.59e+00    -  5.37e-01 1.36e-03f  1
 172 -9.8267395e+03 2.71e-05 9.31e+04  -6.0 1.75e+02    -  8.45e-01 9.10e-06f  1
 173r-9.8267395e+03 2.71e-05 1.00e+03  -5.6 0.00e+00    -  0.00e+00 3.37e-07R 12
 174r-9.8267392e+03 2.63e-05 9.79e+02  -5.6 4.57e+00    -  6.85e-01 2.08e-02f  1
 175r-9.8267392e+03 2.63e-05 9.99e+02  -5.6 0.00e+00    -  0.00e+00 1.03e-07R  2
 176r-9.8267391e+03 2.54e-05 9.86e+02  -5.6 2.47e+00    -  5.85e-01 1.40e-02f  1
 177 -9.8267398e+03 2.54e-05 9.20e+03  -6.0 2.81e+01    -  8.53e-01 9.29e-05f  1
 178 -9.8267425e+03 2.55e-05 1.69e+05  -6.0 4.47e+02    -  9.11e-02 6.81e-04f  1
 179r-9.8267425e+03 2.55e-05 1.00e+03  -5.6 0.00e+00    -  0.00e+00 3.12e-07R  7
iter    objective    inf_pr   inf_du lg(mu)  ||d||  lg(rg) alpha_du alpha_pr  ls
 180r-9.8267425e+03 2.54e-05 9.99e+02  -5.6 4.10e+00    -  8.35e-01 1.38e-03f  1
 181r-9.8267425e+03 2.54e-05 9.99e+02  -5.6 0.00e+00    -  0.00e+00 4.78e-09R  2
 182r-9.8267424e+03 2.50e-05 9.94e+02  -5.6 2.43e+00    -  6.30e-01 6.18e-03f  1
 183 -9.8267427e+03 2.50e-05 2.09e+04  -6.0 5.91e+01    -  8.53e-01 4.09e-05f  1
 184r-9.8267427e+03 2.50e-05 1.00e+03  -5.6 0.00e+00    -  0.00e+00 3.79e-07R  3
 185r-9.8267423e+03 2.41e-05 9.67e+02  -5.6 3.98e+00    -  8.45e-01 3.31e-02f  1
 186 -9.8267423e+03 2.41e-05 2.53e+05  -6.0 1.12e+02    -  5.53e-02 1.10e-07h  2
 187r-9.8267423e+03 2.41e-05 1.00e+03  -5.6 0.00e+00    -  0.00e+00 2.66e-07R  6
 188r-9.8267422e+03 2.37e-05 9.93e+02  -5.6 2.30e+00    -  7.60e-01 6.89e-03f  1
 189 -9.8267422e+03 2.37e-05 3.84e+04  -6.0 2.53e+02    -  2.33e-02 7.77e-08f  2
iter    objective    inf_pr   inf_du lg(mu)  ||d||  lg(rg) alpha_du alpha_pr  ls
 190r-9.8267422e+03 2.37e-05 1.00e+03  -5.6 0.00e+00    -  0.00e+00 4.45e-07R  7
 191r-9.8267416e+03 2.23e-05 9.71e+02  -5.6 7.60e+00    -  9.60e-01 2.78e-02f  1
 192 -9.8267416e+03 2.23e-05 1.25e+05  -6.0 2.48e+02    -  7.93e-01 1.31e-07f  2
 193r-9.8267416e+03 2.23e-05 1.00e+03  -5.6 0.00e+00    -  0.00e+00 4.44e-07R  7
 194r-9.8267415e+03 2.22e-05 9.96e+02  -5.6 1.11e+01    -  9.49e-01 3.33e-03f  1
 195 -9.8267419e+03 2.22e-05 2.34e+04  -6.0 4.34e+04    -  2.80e-02 1.52e-07f  1
 196r-9.8267419e+03 2.22e-05 1.00e+03  -5.6 0.00e+00    -  0.00e+00 2.98e-07R 14
 197r-9.8267292e+03 2.73e-05 9.86e+02  -5.6 8.38e+01    -  8.29e-01 1.34e-02f  1
 198r-9.8266761e+03 2.38e-04 9.44e+02  -5.6 7.38e+01    -  6.77e-01 4.22e-02f  1
 199r-9.8259395e+03 3.53e-02 4.06e+02  -5.6 7.05e+01    -  8.12e-01 5.70e-01f  1
iter    objective    inf_pr   inf_du lg(mu)  ||d||  lg(rg) alpha_du alpha_pr  ls
 200r-9.8255534e+03 7.79e-04 9.66e+00  -5.6 6.01e+00    -  9.80e-01 1.00e+00f  1
 201r-9.8254017e+03 3.82e-04 1.21e-01  -5.6 4.18e+00    -  1.00e+00 1.00e+00h  1
 202r-9.8254133e+03 2.35e-05 4.16e-04  -5.6 9.88e-01    -  1.00e+00 1.00e+00h  1
 203 -9.8254908e+03 2.35e-05 2.30e+03  -6.0 3.62e+03    -  4.04e-01 2.34e-04f  4
 204 -9.8255091e+03 2.35e-05 4.99e+03  -6.0 2.29e+02    -  8.93e-01 8.34e-04f  2
 205 -9.8255132e+03 2.52e-05 5.05e+05  -6.0 3.78e+02    -  8.70e-01 7.19e-04f  3
 206r-9.8255132e+03 2.52e-05 1.00e+03  -4.7 0.00e+00    -  0.00e+00 3.32e-07R 14
 207r-9.8255132e+03 6.88e-06 1.01e+03  -4.7 1.34e+00    -  2.39e-01 1.00e-03f  1
 208 -9.8255685e+03 1.26e-05 1.91e+02  -6.0 1.29e+06    -  8.78e-04 4.13e-07f  8
 209 -9.8256089e+03 1.63e-05 4.41e+02  -6.0 1.11e+05    -  5.07e-03 3.82e-06f  8
iter    objective    inf_pr   inf_du lg(mu)  ||d||  lg(rg) alpha_du alpha_pr  ls
 210 -9.8294523e+03 2.98e-02 1.21e+04  -6.0 1.62e+04    -  1.63e-01 2.35e-03f  1
 211r-9.8294523e+03 2.98e-02 1.00e+03  -1.7 0.00e+00    -  0.00e+00 1.19e-08R  2
 212r-9.8296160e+03 2.43e-02 2.35e+03  -1.7 1.08e+05    -  7.17e-04 1.86e-04f  1
 213 -9.8296168e+03 2.43e-02 1.38e+06  -6.0 3.69e+01    -  8.52e-01 1.36e-04h  1
 214 -9.8296560e+03 2.34e-02 4.36e+08  -6.0 4.66e+02    -  1.37e-04 4.32e-02h  1
 215r-9.8296560e+03 2.34e-02 1.00e+03  -1.8 0.00e+00    -  0.00e+00 2.35e-08R  2
 216r-9.8296563e+03 2.16e-02 1.15e+03  -1.8 6.01e+02    -  3.15e-04 7.65e-05f  1
 217r-9.8296581e+03 1.01e-02 9.99e+02  -1.8 4.66e+02    -  3.93e-04 7.02e-04f  1
 218 -9.8296583e+03 1.01e-02 8.56e+05  -6.0 2.91e+01    -  8.63e-01 3.35e-05h  1
 219 -9.8296593e+03 1.01e-02 2.03e+07  -6.0 4.37e+02    -  3.51e-05 8.31e-04h  1
In iteration 219, 1 Slack too small, adjusting variable bound
iter    objective    inf_pr   inf_du lg(mu)  ||d||  lg(rg) alpha_du alpha_pr  ls
 220 -9.8296596e+03 1.01e-02 2.03e+07  -6.0 5.63e+04    -  4.15e-06 5.38e-07f  1
 221 -9.8296614e+03 1.01e-02 2.03e+07  -6.0 5.56e+04    -  9.92e-06 3.86e-06f  1
 222 -9.8296651e+03 1.01e-02 2.03e+07  -6.0 7.82e+04    -  1.82e-05 1.04e-05f  1
 223r-9.8296651e+03 1.01e-02 1.00e+03  -2.1 0.00e+00    -  0.00e+00 3.72e-07R  7
 224r-9.8296651e+03 9.28e-03 2.51e+03  -2.1 9.89e+01    -  1.95e-03 7.98e-05f  1
 225r-9.8296641e+03 5.03e-03 6.08e+03  -2.1 7.89e+01    -  5.92e-03 2.95e-03f  1
 226 -9.8296644e+03 5.03e-03 1.60e+04  -6.0 3.04e+01    -  8.64e-01 5.41e-05h  1
 227 -9.8296645e+03 5.03e-03 5.85e+05  -6.0 6.42e+04    -  1.52e-05 2.48e-07f  1
 228 -9.8296662e+03 5.03e-03 2.40e+06  -6.0 1.07e+05    -  4.40e-05 1.09e-05f  1
 229r-9.8296662e+03 5.03e-03 1.00e+03  -3.0 0.00e+00    -  0.00e+00 4.86e-07R  8
iter    objective    inf_pr   inf_du lg(mu)  ||d||  lg(rg) alpha_du alpha_pr  ls
 230r-9.8296661e+03 5.03e-03 1.19e+04  -3.0 2.22e+01    -  7.69e-02 1.00e-03f  1
 231 -9.8296662e+03 5.03e-03 3.71e+05  -6.0 2.96e+01    -  8.64e-01 1.17e-06h  2
In iteration 231, 1 Slack too small, adjusting variable bound
 232 -9.8296662e+03 5.03e-03 3.04e+06  -6.0 1.06e+05    -  6.12e-05 7.34e-06h  1
 233r-9.8296662e+03 5.03e-03 1.00e+03  -3.6 0.00e+00    -  0.00e+00 3.88e-07R  9
 234r-9.8296662e+03 5.01e-03 1.05e+04  -3.6 8.10e+00    -  2.68e-01 1.00e-03f  1
 235 -9.8296662e+03 5.01e-03 1.43e+06  -6.0 2.88e+01    -  8.64e-01 3.02e-07h  2
 236r-9.8296662e+03 5.01e-03 1.00e+03  -4.2 0.00e+00    -  0.00e+00 3.56e-07R  7
 237r-9.8296662e+03 4.97e-03 2.50e+03  -4.2 7.75e+00    -  2.24e-01 1.00e-03f  1
 238 -9.8296662e+03 4.97e-03 2.68e+06  -6.0 2.33e+02    -  8.38e-01 2.24e-07h  2
 239r-9.8296662e+03 4.97e-03 1.00e+03  -4.8 0.00e+00    -  0.00e+00 2.81e-07R  9
iter    objective    inf_pr   inf_du lg(mu)  ||d||  lg(rg) alpha_du alpha_pr  ls
 240r-9.8296663e+03 4.79e-03 9.93e+02  -4.8 2.61e+01    -  8.82e-02 1.00e-03f  1
 241 -9.8296663e+03 4.79e-03 3.71e+05  -6.0 5.71e+02    -  3.61e-02 1.31e-07h  2
 242r-9.8296663e+03 4.79e-03 1.00e+03  -5.4 0.00e+00    -  0.00e+00 4.14e-07R 15
 243r-9.8296663e+03 4.14e-03 9.97e+02  -5.4 9.82e+01    -  2.02e-02 1.00e-03f  1
 244 -9.8296666e+03 4.14e-03 5.76e+04  -6.0 1.21e+05    -  1.52e-02 9.84e-08f  1
 245r-9.8296666e+03 4.14e-03 1.00e+03  -5.6 0.00e+00    -  0.00e+00 2.54e-07R 11
 246r-9.8296673e+03 3.36e-03 9.98e+02  -5.6 1.48e+02    -  1.14e-02 1.01e-03f  1
 247r-9.8296673e+03 3.36e-03 9.99e+02  -5.6 0.00e+00    -  0.00e+00 3.00e-09R  2
 248r-9.8296673e+03 2.83e-03 9.98e+02  -5.6 1.46e+01    -  2.44e-02 1.04e-03f  1
 249 -9.8296674e+03 2.83e-03 1.39e+05  -6.0 3.04e+01    -  8.64e-01 6.21e-06h  1
iter    objective    inf_pr   inf_du lg(mu)  ||d||  lg(rg) alpha_du alpha_pr  ls
 250r-9.8296674e+03 2.83e-03 1.00e+03  -5.6 0.00e+00    -  0.00e+00 4.91e-07R  3
 251r-9.8296676e+03 1.38e-03 9.95e+02  -5.6 2.87e+01    -  3.47e-02 3.81e-03f  1
 252r-9.8296676e+03 1.38e-03 9.99e+02  -5.1 0.00e+00    -  0.00e+00 1.18e-08R  2
 253r-9.8296676e+03 1.36e-03 9.96e+02  -5.1 5.99e+00    -  1.76e-01 1.00e-03f  1
 254 -9.8296677e+03 1.36e-03 4.19e+04  -6.0 3.10e+01    -  8.64e-01 2.07e-05h  1
 255r-9.8296677e+03 1.36e-03 1.00e+03  -5.6 0.00e+00    -  0.00e+00 2.57e-07R  2
 256r-9.8296677e+03 1.25e-03 9.98e+02  -5.6 2.20e+01    -  8.70e-02 1.20e-03f  1
 257r-9.8296677e+03 1.25e-03 9.99e+02  -5.6 0.00e+00    -  0.00e+00 3.73e-09R  2
 258r-9.8296679e+03 9.24e-04 9.95e+02  -5.6 7.98e+00    -  7.74e-02 4.51e-03f  1
 259 -9.8296680e+03 9.24e-04 3.06e+04  -6.0 3.19e+01    -  8.64e-01 2.83e-05f  1
iter    objective    inf_pr   inf_du lg(mu)  ||d||  lg(rg) alpha_du alpha_pr  ls
 260r-9.8296680e+03 9.24e-04 1.00e+03  -5.6 0.00e+00    -  0.00e+00 1.75e-07R  2
 261r-9.8296683e+03 6.98e-04 9.93e+02  -5.6 2.04e+01    -  1.21e-01 5.67e-03f  1
 262r-9.8296683e+03 6.98e-04 9.99e+02  -5.6 0.00e+00    -  0.00e+00 1.79e-08R  2
 263r-9.8296683e+03 6.69e-04 9.98e+02  -5.6 5.94e+00    -  7.13e-02 1.26e-03f  1
 264 -9.8296683e+03 6.69e-04 1.08e+05  -6.0 3.17e+01    -  8.64e-01 8.01e-06h  1
 265r-9.8296683e+03 6.69e-04 1.00e+03  -5.6 0.00e+00    -  0.00e+00 3.61e-07R  3
 266r-9.8296685e+03 5.64e-04 9.94e+02  -5.6 1.80e+01    -  1.65e-01 5.07e-03f  1
 267r-9.8296685e+03 5.64e-04 9.99e+02  -5.6 0.00e+00    -  0.00e+00 1.61e-08R  2
 268r-9.8296686e+03 4.99e-04 9.95e+02  -5.6 4.81e+00    -  7.02e-02 4.42e-03f  1
 269 -9.8296687e+03 4.99e-04 3.08e+04  -6.0 3.28e+01    -  8.64e-01 2.81e-05f  1
iter    objective    inf_pr   inf_du lg(mu)  ||d||  lg(rg) alpha_du alpha_pr  ls
 270r-9.8296687e+03 4.99e-04 1.00e+03  -5.6 0.00e+00    -  0.00e+00 1.76e-07R  2
 271r-9.8296691e+03 3.31e-04 9.85e+02  -5.6 1.47e+01    -  2.24e-01 1.47e-02f  1
 272r-9.8296691e+03 3.31e-04 9.99e+02  -5.6 0.00e+00    -  0.00e+00 4.70e-08R  2
 273r-9.8296691e+03 3.25e-04 9.98e+02  -5.6 3.21e+00    -  7.04e-02 1.05e-03f  1
 274 -9.8296692e+03 3.25e-04 1.28e+05  -6.0 3.26e+01    -  8.64e-01 6.79e-06f  1
 275r-9.8296692e+03 3.25e-04 1.00e+03  -5.6 0.00e+00    -  0.00e+00 4.20e-07R  3
 276r-9.8296692e+03 3.05e-04 9.96e+02  -5.6 6.07e+00    -  3.46e-01 4.20e-03f  1
 277r-9.8296692e+03 3.05e-04 9.99e+02  -5.6 0.00e+00    -  0.00e+00 1.35e-08R  2
 278r-9.8296694e+03 2.39e-04 9.84e+02  -5.6 2.86e+00    -  7.07e-02 1.54e-02f  1
 279 -9.8296699e+03 2.39e-04 8.73e+03  -6.0 3.56e+01    -  8.64e-01 9.92e-05f  1
iter    objective    inf_pr   inf_du lg(mu)  ||d||  lg(rg) alpha_du alpha_pr  ls
 280r-9.8296699e+03 2.39e-04 1.00e+03  -5.6 0.00e+00    -  0.00e+00 2.44e-08R  2
 281r-9.8296700e+03 2.00e-04 9.85e+02  -5.6 3.00e+00    -  4.56e-01 1.52e-02f  1
 282r-9.8296700e+03 2.00e-04 9.99e+02  -5.6 0.00e+00    -  0.00e+00 4.90e-08R  2
 283r-9.8296700e+03 1.78e-04 9.87e+02  -5.6 1.17e+00    -  7.44e-02 1.19e-02f  1
 284 -9.8296704e+03 1.78e-04 1.13e+04  -6.0 3.65e+01    -  8.64e-01 7.67e-05f  1
 285r-9.8296704e+03 1.78e-04 1.00e+03  -5.6 0.00e+00    -  0.00e+00 7.88e-08R  2
 286r-9.8296706e+03 1.21e-04 9.59e+02  -5.6 1.74e+00    -  6.27e-01 4.03e-02f  1
 287 -9.8296706e+03 1.21e-04 4.54e+04  -6.0 1.87e+02    -  8.43e-01 6.50e-08h  3
 288r-9.8296706e+03 1.21e-04 1.00e+03  -5.6 0.00e+00    -  0.00e+00 3.89e-07R  2
 289r-9.8296710e+03 1.17e-04 9.93e+02  -5.6 7.22e+00    -  5.26e-01 6.23e-03f  1
iter    objective    inf_pr   inf_du lg(mu)  ||d||  lg(rg) alpha_du alpha_pr  ls
 290 -9.8296710e+03 1.17e-04 8.45e+05  -6.0 3.27e+01    -  1.98e-01 5.88e-08h  3
 291r-9.8296710e+03 1.17e-04 1.00e+03  -5.6 0.00e+00    -  0.00e+00 4.49e-07R  5
 292r-9.8296710e+03 9.99e-05 9.73e+02  -5.6 8.14e-01    -  6.37e-01 2.70e-02f  1
 293 -9.8296710e+03 9.99e-05 2.08e+06  -6.0 1.59e+02    -  8.63e-01 1.76e-07h  2
 294r-9.8296710e+03 9.99e-05 1.00e+03  -5.6 0.00e+00    -  0.00e+00 4.94e-07R  7
 295r-9.8296719e+03 7.62e-05 9.47e+02  -5.6 2.88e+00    -  5.12e-01 5.24e-02f  1
 296 -9.8296719e+03 7.62e-05 8.30e+05  -6.0 3.45e+01    -  4.26e-01 2.57e-07h  2
 297r-9.8296719e+03 7.62e-05 1.00e+03  -5.6 0.00e+00    -  0.00e+00 4.76e-07R  5
 298r-9.8296719e+03 7.54e-05 9.96e+02  -5.6 1.01e+00    -  5.26e-01 2.98e-03f  1
 299 -9.8296719e+03 7.54e-05 1.91e+06  -6.0 6.26e+02    -  6.36e-01 2.77e-07f  1
iter    objective    inf_pr   inf_du lg(mu)  ||d||  lg(rg) alpha_du alpha_pr  ls
 300r-9.8296719e+03 7.54e-05 1.00e+03  -5.6 0.00e+00    -  0.00e+00 3.75e-07R  8
 301r-9.8296730e+03 7.22e-05 9.87e+02  -5.6 1.19e+01    -  4.81e-01 1.20e-02f  1
 302r-9.8296730e+03 7.22e-05 9.99e+02  -5.6 0.00e+00    -  0.00e+00 3.90e-08R  2
 303r-9.8296730e+03 7.04e-05 9.92e+02  -5.6 8.51e-01    -  7.70e-02 7.27e-03f  1
 304 -9.8296732e+03 7.04e-05 1.84e+04  -6.0 3.70e+01    -  8.63e-01 4.72e-05f  1
 305r-9.8296732e+03 7.04e-05 1.00e+03  -5.6 0.00e+00    -  0.00e+00 1.51e-07R  2
 306r-9.8296734e+03 6.37e-05 9.70e+02  -5.6 1.15e+00    -  4.71e-01 2.91e-02f  1
 307r-9.8296734e+03 6.37e-05 9.99e+02  -5.6 0.00e+00    -  0.00e+00 9.43e-08R  2
 308r-9.8296740e+03 4.63e-05 9.08e+02  -5.6 1.12e+00    -  1.22e-01 9.13e-02f  1
 309 -9.8296798e+03 4.63e-05 4.47e+02  -6.0 3.67e+01    -  4.95e-01 1.11e-03f  1
iter    objective    inf_pr   inf_du lg(mu)  ||d||  lg(rg) alpha_du alpha_pr  ls
 310 -9.8297988e+03 4.22e-04 1.36e+04  -6.0 1.82e+02    -  8.47e-01 2.42e-02f  1
 311 -9.8298037e+03 4.57e-04 1.10e+05  -6.0 4.35e+02    -  6.68e-01 6.11e-03f  1
In iteration 311, 1 Slack too small, adjusting variable bound
 312 -9.8298041e+03 4.57e-04 2.31e+06  -6.0 4.24e+04    -  9.22e-05 3.99e-06f  1
 313r-9.8298041e+03 4.57e-04 1.00e+03  -3.5 0.00e+00    -  0.00e+00 3.50e-07R  8
 314r-9.8298042e+03 1.82e-04 3.57e+03  -3.5 2.39e+01    -  5.51e-02 1.00e-03f  1
 315 -9.8298042e+03 1.82e-04 8.42e+05  -6.0 1.75e+02    -  7.79e-01 4.64e-07h  2
 316r-9.8298042e+03 1.82e-04 1.00e+03  -4.3 0.00e+00    -  0.00e+00 2.73e-07R  7
 317r-9.8298042e+03 1.82e-04 2.21e+03  -4.3 2.91e+00    -  1.97e-01 1.00e-03f  1
 318 -9.8298042e+03 1.82e-04 8.27e+05  -6.0 1.74e+02    -  5.06e-01 3.07e-07h  2
 319r-9.8298042e+03 1.82e-04 1.00e+03  -4.9 0.00e+00    -  0.00e+00 4.95e-07R  6
iter    objective    inf_pr   inf_du lg(mu)  ||d||  lg(rg) alpha_du alpha_pr  ls
 320r-9.8298042e+03 1.81e-04 1.79e+03  -4.9 2.20e-01    -  8.09e-01 1.00e-03f  1
 321 -9.8298042e+03 1.81e-04 8.20e+05  -6.0 1.74e+02    -  2.76e-01 8.44e-08h  3
 322r-9.8298042e+03 1.81e-04 1.00e+03  -5.5 0.00e+00    -  0.00e+00 4.61e-07R  6
 323r-9.8298042e+03 1.78e-04 9.98e+02  -5.5 7.75e-01    -  4.67e-01 1.00e-03f  1
 324r-9.8298042e+03 1.78e-04 9.99e+02  -5.6 0.00e+00    -  0.00e+00 1.30e-07R  2
 325r-9.8298042e+03 1.69e-04 9.96e+02  -5.6 7.77e-01    -  6.35e-02 3.30e-03f  1
 326 -9.8298043e+03 1.69e-04 4.11e+04  -6.0 9.04e+01    -  8.69e-01 2.12e-05f  1
In iteration 326, 1 Slack too small, adjusting variable bound
 327 -9.8298044e+03 1.69e-04 2.69e+06  -6.0 5.08e+04    -  9.67e-05 1.16e-06f  1
 328r-9.8298044e+03 1.69e-04 1.00e+03  -5.6 0.00e+00    -  0.00e+00 4.30e-07R  8
 329r-9.8298045e+03 1.35e-04 9.86e+02  -5.6 1.20e+00    -  3.98e-01 1.33e-02f  1
iter    objective    inf_pr   inf_du lg(mu)  ||d||  lg(rg) alpha_du alpha_pr  ls
 330r-9.8298045e+03 1.35e-04 9.99e+02  -5.6 0.00e+00    -  0.00e+00 4.22e-08R  2
 331r-9.8298044e+03 4.63e-05 9.45e+02  -5.6 7.68e-01    -  6.21e-02 5.37e-02f  1
 332 -9.8298062e+03 4.63e-05 1.70e+03  -6.0 2.58e+01    -  5.76e-01 3.40e-04f  1
 333r-9.8298062e+03 4.63e-05 1.00e+03  -5.6 0.00e+00    -  0.00e+00 1.79e-08R  2
 334r-9.8299380e+03 6.18e-03 9.34e+02  -5.6 2.47e+02    -  1.11e-01 6.49e-02f  1
 335r-9.8299381e+03 4.57e-03 6.91e+02  -5.6 7.58e-01    -  3.05e-01 2.61e-01f  1
 336r-9.8299378e+03 3.57e-03 5.40e+02  -5.6 5.66e-01    -  9.90e-01 2.18e-01f  1
 337r-9.8299234e+03 3.51e-03 5.54e+02  -5.6 8.96e+01    -  1.73e-01 1.69e-02f  1
 338r-9.8298244e+03 7.54e-04 1.06e+02  -5.6 3.19e+00    -  9.53e-01 8.34e-01f  1
 339r-9.8291359e+03 2.67e-03 6.15e+00  -5.6 1.05e+01    -  9.67e-01 1.00e+00f  1
iter    objective    inf_pr   inf_du lg(mu)  ||d||  lg(rg) alpha_du alpha_pr  ls
 340r-9.8287789e+03 1.16e-04 3.09e-02  -5.6 2.19e+00    -  1.00e+00 1.00e+00h  1
 341r-9.8287904e+03 2.49e-06 2.92e-04  -5.6 3.11e-01    -  1.00e+00 1.00e+00h  1
 342 -9.8287958e+03 2.49e-06 5.85e+02  -6.0 4.41e+01    -  5.28e-01 9.04e-04f  1
 343 -9.8287988e+03 4.21e-06 3.80e+04  -6.0 4.48e+02    -  6.60e-01 9.29e-04f  1
 344r-9.8287988e+03 4.21e-06 1.00e+03  -5.5 0.00e+00    -  0.00e+00 9.61e-10R  2
 345r-9.8287988e+03 2.49e-06 9.98e+02  -5.5 4.58e-01    -  9.94e-01 1.00e-03f  1
 346r-9.8287988e+03 2.49e-06 9.99e+02  -5.6 0.00e+00    -  0.00e+00 7.17e-09R  2
 347r-9.8287988e+03 2.49e-06 9.96e+02  -5.6 2.60e-02    -  9.99e-01 3.01e-03f  1
 348 -9.8287989e+03 2.49e-06 4.25e+04  -6.0 4.40e+01    -  8.53e-01 2.01e-05f  1
 349r-9.8287989e+03 2.49e-06 1.00e+03  -5.6 0.00e+00    -  0.00e+00 3.15e-07R  5
iter    objective    inf_pr   inf_du lg(mu)  ||d||  lg(rg) alpha_du alpha_pr  ls
 350r-9.8287989e+03 2.49e-06 9.87e+02  -5.6 1.32e-02    -  1.00e+00 1.21e-02f  1
 351 -9.8287989e+03 2.49e-06 1.64e+05  -6.0 2.70e+02    -  2.95e-01 8.11e-08h  1
 352r-9.8287989e+03 2.49e-06 1.00e+03  -5.6 0.00e+00    -  0.00e+00 3.86e-07R  7
 353r-9.8287989e+03 2.49e-06 9.46e+02  -5.6 1.31e-02    -  1.00e+00 5.29e-02f  1
 354 -9.8287989e+03 2.49e-06 4.12e+05  -6.0 1.44e+02    -  8.73e-01 1.77e-07f  2
 355r-9.8287989e+03 2.49e-06 1.00e+03  -5.6 0.00e+00    -  0.00e+00 3.19e-07R  9
 356r-9.8287988e+03 2.49e-06 7.64e+02  -5.6 1.17e-02    -  1.00e+00 2.35e-01f  1
 357 -9.8287988e+03 2.49e-06 2.04e+05  -6.0 4.36e+01    -  3.55e-01 8.74e-07f  2
 358r-9.8287988e+03 2.49e-06 1.00e+03  -5.6 0.00e+00    -  0.00e+00 2.73e-07R  6
 359r-9.8287985e+03 2.49e-06 8.92e-02  -5.6 5.93e-03    -  1.00e+00 1.00e+00f  1
iter    objective    inf_pr   inf_du lg(mu)  ||d||  lg(rg) alpha_du alpha_pr  ls
 360 -9.8287985e+03 2.49e-06 2.39e+04  -6.0 7.57e+01    -  8.73e-01 7.55e-06f  1
 361r-9.8287985e+03 2.49e-06 1.00e+03  -5.6 0.00e+00    -  0.00e+00 4.62e-07R  4
 362r-9.8287980e+03 2.49e-06 2.61e-01  -5.6 1.56e-02    -  1.00e+00 1.00e+00f  1
 363 -9.8287981e+03 2.49e-06 3.41e+03  -6.0 2.58e+02    -  8.59e-01 6.68e-06f  1
 364 -9.8287981e+03 2.49e-06 3.08e+04  -6.0 4.48e+02    -  6.61e-01 6.16e-07h  2
 365r-9.8287981e+03 2.49e-06 1.00e+03  -5.6 0.00e+00    -  0.00e+00 3.59e-07R  4
 366r-9.8287977e+03 2.49e-06 1.20e+02  -5.6 1.04e-02    -  1.00e+00 8.79e-01f  1
 367r-9.8281933e+03 1.07e-03 1.05e-01  -5.6 7.20e+00    -  9.90e-01 1.00e+00f  1
 368r-9.8279910e+03 8.02e-06 2.19e-04  -5.6 6.24e-01    -  1.00e+00 1.00e+00h  1
Restoration phase converged to a feasible point that is
unacceptable to the filter for the original problem.
Restoration phase in the restoration phase failed.

Number of Iterations....: 368

                                   (scaled)                 (unscaled)
Objective...............:  -9.8279964115767489e+03   -9.8279964115767489e+03
Dual infeasibility......:   1.0000000128765363e+00    1.0000000128765363e+00
Constraint violation....:   2.4904973455498566e-06    2.4904973455498566e-06
Complementarity.........:   2.4855139963965958e-06    2.4855139963965958e-06
Overall NLP error.......:   1.0000000128765363e+00    1.0000000128765363e+00


Number of objective function evaluations             = 1061
Number of objective gradient evaluations             = 325
Number of equality constraint evaluations            = 1061
Number of inequality constraint evaluations          = 1061
Number of equality constraint Jacobian evaluations   = 466
Number of inequality constraint Jacobian evaluations = 466
Number of Lagrangian Hessian evaluations             = 369
Total CPU secs in IPOPT (w/o function evaluations)   =    219.118
Total CPU secs in NLP function evaluations           =     12.130

EXIT: Restoration Failed!
